NAME : brg180Preorder.105.tour
COMMENT : Length = 105
COMMENT : Found by LKH [Keld Helsgaun] Thu Apr 23 09:33:38 2020
TYPE : TOUR
DIMENSION : 180
TOUR_SECTION
1
12
11
10
9
8
113
112
111
110
109
120
119
118
117
116
115
114
178
179
180
169
170
171
172
173
174
175
176
177
63
62
61
72
71
70
69
68
67
66
65
64
55
54
53
52
51
50
49
60
59
58
57
56
121
132
131
130
129
128
127
126
125
124
123
122
108
97
98
99
100
101
102
103
104
105
106
107
25
36
35
34
33
32
31
30
29
28
27
26
91
90
89
88
87
86
85
96
95
94
93
92
157
168
167
166
165
164
163
162
161
160
159
158
42
43
44
45
46
47
48
37
38
39
40
41
134
135
136
137
138
139
140
141
142
143
144
133
78
79
80
81
82
83
84
73
74
75
76
77
15
14
13
24
23
22
21
20
19
18
17
16
149
148
147
146
145
156
155
154
153
152
151
150
7
6
5
4
3
2
-1
EOF
